21610.43 1
0 65 86 67 78 58 27 31 56 75 10 81 73 95 61 89 2 50 34 76 64 28 62 26 29 14 13 69 91 4 16 80 96 55 3 24 71 57 66 74 39 83 7 47 37 77 88 87 20 5 92 54 35 21 32 11 99 44 43 40 25 19 72 84 51 17 79 70 38 90 8 22 52 18 9 53 42 98 68 48 41 59 63 85 6 23 49 82 94 30 46 45 36 1 60 33 97 15 93 12